
Gurobi 9.1.2 (win64, Java) logging started Tue Nov  9 15:36:32 2021

Academic license - for non-commercial use only - expires 2022-10-30
Gurobi Optimizer version 9.1.2 build v9.1.2rc0 (win64)
Thread count: 6 physical cores, 12 logical processors, using up to 12 threads
Optimize a model with 450 rows, 45000 columns and 90000 nonzeros
Model fingerprint: 0xc6aba35e
Variable types: 0 continuous, 45000 integer (45000 binary)
Coefficient statistics:
  Matrix range     [1e+00, 1e+03]
  Objective range  [1e+00, 1e+03]
  Bounds range     [1e+00, 1e+00]
  RHS range        [1e+00, 1e+03]
Found heuristic solution: objective 83432.000000
Presolve removed 128 rows and 23030 columns
Presolve time: 0.63s
Presolved: 322 rows, 21970 columns, 43930 nonzeros
Found heuristic solution: objective 83382.000000
Variable types: 0 continuous, 21970 integer (21970 binary)
Presolve removed 0 rows and 8 columns
Presolved: 322 rows, 21962 columns, 43922 nonzeros


Root relaxation: objective 8.478054e+04, 215 iterations, 0.02 seconds

    Nodes    |    Current Node    |     Objective Bounds      |     Work
 Expl Unexpl |  Obj  Depth IntInf | Incumbent    BestBd   Gap | It/Node Time

     0     0 84780.5350    0    1 83432.0000 84780.5350  1.62%     -    0s
H    0     0                    84022.000000 84780.5350  0.90%     -    0s
H    0     0                    84600.000000 84780.5350  0.21%     -    0s

Cutting planes:
  Cover: 1
  StrongCG: 1

Explored 1 nodes (2441 simplex iterations) in 0.85 seconds
Thread count was 12 (of 12 available processors)

Solution count 4: 84600 84022 83432 83382 

Optimal solution found (tolerance 1.00e-04)
Best objective 8.460000000000e+04, best bound 8.460000000000e+04, gap 0.0000%

Gurobi 9.1.2 (win64, Java) logging started Tue Nov  9 15:37:02 2021

Academic license - for non-commercial use only - expires 2022-10-30
Gurobi Optimizer version 9.1.2 build v9.1.2rc0 (win64)
Thread count: 6 physical cores, 12 logical processors, using up to 12 threads
Optimize a model with 450 rows, 45000 columns and 90000 nonzeros
Model fingerprint: 0xc6aba35e
Variable types: 0 continuous, 45000 integer (45000 binary)
Coefficient statistics:
  Matrix range     [1e+00, 1e+03]
  Objective range  [1e+00, 1e+03]
  Bounds range     [1e+00, 1e+00]
  RHS range        [1e+00, 1e+03]
Found heuristic solution: objective 83432.000000
Presolve removed 128 rows and 23030 columns
Presolve time: 0.61s
Presolved: 322 rows, 21970 columns, 43930 nonzeros
Found heuristic solution: objective 83382.000000
Variable types: 0 continuous, 21970 integer (21970 binary)
Presolve removed 0 rows and 8 columns
Presolved: 322 rows, 21962 columns, 43922 nonzeros


Root relaxation: objective 8.478054e+04, 215 iterations, 0.02 seconds

    Nodes    |    Current Node    |     Objective Bounds      |     Work
 Expl Unexpl |  Obj  Depth IntInf | Incumbent    BestBd   Gap | It/Node Time

     0     0 84780.5350    0    1 83432.0000 84780.5350  1.62%     -    0s
H    0     0                    84022.000000 84780.5350  0.90%     -    0s
H    0     0                    84600.000000 84780.5350  0.21%     -    0s

Cutting planes:
  Cover: 1
  StrongCG: 1

Explored 1 nodes (2441 simplex iterations) in 0.83 seconds
Thread count was 12 (of 12 available processors)

Solution count 4: 84600 84022 83432 83382 

Optimal solution found (tolerance 1.00e-04)
Best objective 8.460000000000e+04, best bound 8.460000000000e+04, gap 0.0000%
